NAME: random-34-32549
TYPE: TSP
COMMENT: size=34 seed=32549
DIMENSION: 70
EDGE_WEIGHT_TYPE: EUC_2D
NODE_COORD_SECTION
+0 43 894
-0 43 894
+1 943 806
-1 99 910
+2 557 560
-2 706 403
+3 699 183
-3 83 220
+4 808 471
-4 247 763
+5 911 390
-5 251 445
+6 413 520
-6 880 874
+7 604 434
-7 643 698
+8 414 615
-8 864 616
+9 94 661
-9 592 252
+10 3 221
-10 670 24
+11 983 850
-11 499 947
+12 734 5
-12 193 794
+13 559 547
-13 361 917
+14 831 205
-14 299 510
+15 463 247
-15 213 728
+16 991 831
-16 59 401
+17 516 417
-17 443 128
+18 969 416
-18 311 187
+19 918 654
-19 783 638
+20 367 846
-20 469 73
+21 613 378
-21 584 479
+22 42 68
-22 482 937
+23 270 436
-23 568 589
+24 520 683
-24 860 616
+25 313 643
-25 23 384
+26 272 460
-26 474 428
+27 841 721
-27 229 487
+28 8 251
-28 929 273
+29 558 223
-29 271 673
+30 973 554
-30 347 244
+31 377 791
-31 68 194
+32 405 393
-32 268 104
+33 247 229
-33 704 589
+34 453 994
-34 915 915
PRECEDENCE_SECTION
+0 -0
+1 -1
+2 -2
+3 -3
+4 -4
+5 -5
+6 -6
+7 -7
+8 -8
+9 -9
+10 -10
+11 -11
+12 -12
+13 -13
+14 -14
+15 -15
+16 -16
+17 -17
+18 -18
+19 -19
+20 -20
+21 -21
+22 -22
+23 -23
+24 -24
+25 -25
+26 -26
+27 -27
+28 -28
+29 -29
+30 -30
+31 -31
+32 -32
+33 -33
+34 -34
EOF
